(set-info :status sat)
(declare-const symbol_225 (_ BitVec 32))
(declare-const symbol_216 (_ BitVec 32))
(declare-const symbol_312 (_ BitVec 32))
(declare-const symbol_35 (_ BitVec 32))
(declare-const symbol_78 (_ BitVec 32))
(declare-const symbol_197 (_ BitVec 32))
(declare-const symbol_366 (_ BitVec 32))
(declare-const symbol_293 (_ BitVec 32))
(declare-const symbol_42 (_ BitVec 32))
(declare-const symbol_271 (_ BitVec 32))
(declare-const symbol_110 (_ BitVec 32))
(declare-const symbol_91 (_ BitVec 32))
(declare-const symbol_58 (_ BitVec 32))
(declare-const symbol_17 (_ BitVec 32))
(declare-const symbol_257 (_ BitVec 32))
(declare-const symbol_247 (_ BitVec 32))
(declare-const symbol_54 (_ BitVec 32))
(declare-const symbol_106 (_ BitVec 32))
(declare-const symbol_130 (_ BitVec 32))
(declare-const symbol_137 (_ BitVec 32))
(declare-const symbol_243 (_ BitVec 32))
(declare-const symbol_102 (_ BitVec 32))
(declare-const symbol_128 (_ BitVec 32))
(declare-const symbol_60 (_ BitVec 32))
(declare-const symbol_205 (_ BitVec 32))
(declare-const symbol_84 (_ BitVec 32))
(declare-const symbol_26 (_ BitVec 32))
(declare-const symbol_301 (_ BitVec 32))
(declare-const symbol_241 (_ BitVec 32))
(declare-const symbol_29 (_ BitVec 32))
(declare-const symbol_104 (_ BitVec 32))
(declare-const symbol_335 (_ BitVec 32))
(declare-const symbol_166 (_ BitVec 32))
(declare-const symbol_44 (_ BitVec 32))
(declare-const symbol_251 (_ BitVec 32))
(declare-const symbol_229 (_ BitVec 32))
(declare-const symbol_96 (_ BitVec 32))
(declare-const symbol_181 (_ BitVec 32))
(declare-const symbol_255 (_ BitVec 32))
(declare-const symbol_231 (_ BitVec 32))
(declare-const symbol_52 (_ BitVec 32))
(declare-const symbol_16 (_ BitVec 32))
(declare-const symbol_288 (_ BitVec 32))
(declare-const symbol_267 (_ BitVec 32))
(declare-const symbol_265 (_ BitVec 32))
(declare-const symbol_95 (_ BitVec 32))
(declare-const symbol_14 (_ BitVec 32))
(declare-const symbol_221 (_ BitVec 32))
(declare-const symbol_46 (_ BitVec 32))
(declare-const symbol_24 (_ BitVec 32))
(declare-const symbol_1 (_ BitVec 32))
(declare-const symbol_74 (_ BitVec 32))
(declare-const symbol_22 (_ BitVec 32))
(declare-const symbol_281 (_ BitVec 32))
(declare-const symbol_67 (_ BitVec 32))
(declare-const symbol_357 (_ BitVec 32))
(declare-const symbol_62 (_ BitVec 32))
(declare-const symbol_322 (_ BitVec 32))
(declare-const symbol_233 (_ BitVec 32))
(declare-const symbol_80 (_ BitVec 32))
(declare-const symbol_328 (_ BitVec 32))
(declare-const symbol_297 (_ BitVec 32))
(declare-const symbol_50 (_ BitVec 32))
(declare-const symbol_287 (_ BitVec 32))
(declare-const symbol_269 (_ BitVec 32))
(declare-const symbol_66 (_ BitVec 32))
(declare-const symbol_235 (_ BitVec 32))
(declare-const symbol_343 (_ BitVec 32))
(declare-const symbol_318 (_ BitVec 32))
(declare-const symbol_136 (_ BitVec 32))
(declare-const symbol_316 (_ BitVec 32))
(declare-const symbol_299 (_ BitVec 32))
(declare-const symbol_218 (_ BitVec 32))
(declare-const symbol_93 (_ BitVec 32))
(declare-const symbol_326 (_ BitVec 32))
(declare-const symbol_277 (_ BitVec 32))
(declare-const symbol_86 (_ BitVec 32))
(declare-const symbol_199 (_ BitVec 32))
(declare-const symbol_151 (_ BitVec 32))
(declare-const symbol_98 (_ BitVec 32))
(declare-const symbol_31 (_ BitVec 32))
(declare-const symbol_20 (_ BitVec 32))
(declare-const symbol_239 (_ BitVec 32))
(declare-const symbol_7 (_ BitVec 32))
(declare-const symbol_320 (_ BitVec 32))
(declare-const symbol_212 (_ BitVec 32))
(declare-const symbol_194 (_ BitVec 32))
(declare-const symbol_362 (_ BitVec 32))
(declare-const symbol_39 (_ BitVec 32))
(declare-const symbol_159 (_ BitVec 32))
(declare-const symbol_12 (_ BitVec 32))
(declare-const symbol_223 (_ BitVec 32))
(declare-const symbol_360 (_ BitVec 32))
(declare-const symbol_337 (_ BitVec 32))
(declare-const symbol_273 (_ BitVec 32))
(declare-const symbol_76 (_ BitVec 32))
(declare-const symbol_5 (_ BitVec 32))
(declare-const symbol_261 (_ BitVec 32))
(declare-const symbol_203 (_ BitVec 32))
(declare-const symbol_353 (_ BitVec 32))
(declare-const symbol_155 (_ BitVec 32))
(declare-const symbol_305 (_ BitVec 32))
(declare-const symbol_347 (_ BitVec 32))
(declare-const symbol_163 (_ BitVec 32))
(declare-const symbol_330 (_ BitVec 32))
(declare-const symbol_227 (_ BitVec 32))
(declare-const symbol_175 (_ BitVec 32))
(declare-const symbol_134 (_ BitVec 32))
(declare-const symbol_112 (_ BitVec 32))
(declare-const symbol_283 (_ BitVec 32))
(declare-const symbol_303 (_ BitVec 32))
(declare-const symbol_118 (_ BitVec 32))
(declare-const symbol_153 (_ BitVec 32))
(declare-const symbol_149 (_ BitVec 32))
(declare-const symbol_33 (_ BitVec 32))
(declare-const symbol_295 (_ BitVec 32))
(declare-const symbol_209 (_ BitVec 32))
(declare-const symbol_314 (_ BitVec 32))
(declare-const symbol_164 (_ BitVec 32))
(declare-const symbol_132 (_ BitVec 32))
(declare-const symbol_349 (_ BitVec 32))
(declare-const symbol_253 (_ BitVec 32))
(declare-const symbol_157 (_ BitVec 32))
(declare-const symbol_141 (_ BitVec 32))
(declare-const symbol_168 (_ BitVec 32))
(declare-const symbol_116 (_ BitVec 32))
(declare-const symbol_345 (_ BitVec 32))
(declare-const symbol_172 (_ BitVec 32))
(declare-const symbol_143 (_ BitVec 32))
(declare-const symbol_10 (_ BitVec 32))
(declare-const symbol_310 (_ BitVec 32))
(declare-const symbol_237 (_ BitVec 32))
(declare-const symbol_291 (_ BitVec 32))
(declare-const symbol_249 (_ BitVec 32))
(declare-const symbol_0 (_ BitVec 32))
(declare-const symbol_139 (_ BitVec 32))
(declare-const symbol_82 (_ BitVec 32))
(declare-const symbol_9 (_ BitVec 32))
(declare-const symbol_368 (_ BitVec 32))
(declare-const symbol_306 (_ BitVec 32))
(declare-const symbol_161 (_ BitVec 32))
(declare-const symbol_259 (_ BitVec 32))
(declare-const symbol_192 (_ BitVec 32))
(declare-const symbol_188 (_ BitVec 32))
(declare-const symbol_179 (_ BitVec 32))
(declare-const symbol_64 (_ BitVec 32))
(declare-const symbol_183 (_ BitVec 32))
(declare-const symbol_108 (_ BitVec 32))
(declare-const symbol_285 (_ BitVec 32))
(declare-const symbol_3 (_ BitVec 32))
(declare-const symbol_123 (_ BitVec 32))
(declare-const symbol_126 (_ BitVec 32))
(declare-const symbol_196 (_ BitVec 32))
(declare-const symbol_100 (_ BitVec 32))
(declare-const symbol_263 (_ BitVec 32))
(declare-const symbol_207 (_ BitVec 32))
(declare-const symbol_72 (_ BitVec 32))
(declare-const symbol_41 (_ BitVec 32))
(declare-const symbol_341 (_ BitVec 32))
(declare-const symbol_177 (_ BitVec 32))
(declare-const symbol_122 (_ BitVec 32))
(declare-const symbol_333 (_ BitVec 32))
(declare-const symbol_308 (_ BitVec 32))
(declare-const symbol_170 (_ BitVec 32))
(declare-const symbol_275 (_ BitVec 32))
(declare-const symbol_37 (_ BitVec 32))
(declare-const symbol_364 (_ BitVec 32))
(declare-const symbol_339 (_ BitVec 32))
(declare-const symbol_120 (_ BitVec 32))
(declare-const symbol_88 (_ BitVec 32))
(declare-const symbol_324 (_ BitVec 32))
(declare-const symbol_190 (_ BitVec 32))
(declare-const symbol_186 (_ BitVec 32))
(declare-const symbol_279 (_ BitVec 32))
(declare-const symbol_56 (_ BitVec 32))
(declare-const symbol_146 (_ BitVec 32))
(declare-const symbol_148 (_ BitVec 32))
(declare-const symbol_69 (_ BitVec 32))
(declare-const symbol_114 (_ BitVec 32))
(declare-const symbol_245 (_ BitVec 32))
(declare-const symbol_214 (_ BitVec 32))
(declare-const symbol_355 (_ BitVec 32))
(declare-const symbol_351 (_ BitVec 32))
(declare-const symbol_201 (_ BitVec 32))
(declare-const symbol_48 (_ BitVec 32))
(assert (not (= symbol_368 (_ bv5 32))))
(assert (not (not (= symbol_368 (_ bv4 32)))))
(assert (not (not (= symbol_366 (_ bv4 32)))))
(assert (not (not (= symbol_364 (_ bv4 32)))))
(assert (not (not (= symbol_362 (_ bv4 32)))))
(assert (not (not (= symbol_360 (_ bv4 32)))))
(assert (not (not (= symbol_357 (_ bv4 32)))))
(assert (not (not (= symbol_355 (_ bv4 32)))))
(assert (not (not (= symbol_353 (_ bv4 32)))))
(assert (not (not (= symbol_351 (_ bv4 32)))))
(assert (not (not (= symbol_349 (_ bv4 32)))))
(assert (not (not (= symbol_347 (_ bv4 32)))))
(assert (not (not (= symbol_345 (_ bv4 32)))))
(assert (not (not (= symbol_343 (_ bv4 32)))))
(assert (not (not (= symbol_341 (_ bv4 32)))))
(assert (not (not (= symbol_339 (_ bv4 32)))))
(assert (not (not (= symbol_337 (_ bv4 32)))))
(assert (not (not (= symbol_335 (_ bv4 32)))))
(assert (not (not (= symbol_333 (_ bv4 32)))))
(assert (not (not (= symbol_330 (_ bv4 32)))))
(assert (not (not (= symbol_328 (_ bv4 32)))))
(assert (not (not (= symbol_326 (_ bv4 32)))))
(assert (not (not (= symbol_324 (_ bv4 32)))))
(assert (not (not (= symbol_322 (_ bv4 32)))))
(assert (not (not (= symbol_320 (_ bv4 32)))))
(assert (not (not (= symbol_318 (_ bv4 32)))))
(assert (not (not (= symbol_316 (_ bv4 32)))))
(assert (not (not (= symbol_314 (_ bv4 32)))))
(assert (not (not (= symbol_312 (_ bv4 32)))))
(assert (not (not (= symbol_310 (_ bv4 32)))))
(assert (not (not (= symbol_308 (_ bv4 32)))))
(assert (not (not (= symbol_306 (_ bv4 32)))))
(assert (not (not (= symbol_305 (_ bv4 32)))))
(assert (not (not (= symbol_303 (_ bv4 32)))))
(assert (not (not (= symbol_301 (_ bv4 32)))))
(assert (not (not (= symbol_299 (_ bv4 32)))))
(assert (not (not (= symbol_297 (_ bv4 32)))))
(assert (not (not (= symbol_295 (_ bv4 32)))))
(assert (not (not (= symbol_293 (_ bv4 32)))))
(assert (not (not (= symbol_291 (_ bv4 32)))))
(assert (not (not (= symbol_288 (_ bv4 32)))))
(assert (not (not (= symbol_287 (_ bv4 32)))))
(assert (not (not (= symbol_285 (_ bv4 32)))))
(assert (not (not (= symbol_283 (_ bv4 32)))))
(assert (not (not (= symbol_281 (_ bv4 32)))))
(assert (not (not (= symbol_279 (_ bv4 32)))))
(assert (not (not (= symbol_277 (_ bv4 32)))))
(assert (not (not (= symbol_275 (_ bv4 32)))))
(assert (not (not (= symbol_273 (_ bv4 32)))))
(assert (not (not (= symbol_271 (_ bv4 32)))))
(assert (not (not (= symbol_269 (_ bv4 32)))))
(assert (not (not (= symbol_267 (_ bv4 32)))))
(assert (not (not (= symbol_265 (_ bv4 32)))))
(assert (not (not (= symbol_263 (_ bv4 32)))))
(assert (not (not (= symbol_261 (_ bv4 32)))))
(assert (not (not (= symbol_259 (_ bv4 32)))))
(assert (not (not (= symbol_257 (_ bv4 32)))))
(assert (not (not (= symbol_255 (_ bv4 32)))))
(assert (not (not (= symbol_253 (_ bv4 32)))))
(assert (not (not (= symbol_251 (_ bv4 32)))))
(assert (not (not (= symbol_249 (_ bv4 32)))))
(assert (not (not (= symbol_247 (_ bv4 32)))))
(assert (not (not (= symbol_245 (_ bv4 32)))))
(assert (not (not (= symbol_243 (_ bv4 32)))))
(assert (not (not (= symbol_241 (_ bv4 32)))))
(assert (not (not (= symbol_239 (_ bv4 32)))))
(assert (not (not (= symbol_237 (_ bv4 32)))))
(assert (not (not (= symbol_235 (_ bv4 32)))))
(assert (not (not (= symbol_233 (_ bv4 32)))))
(assert (not (not (= symbol_231 (_ bv4 32)))))
(assert (not (not (= symbol_229 (_ bv4 32)))))
(assert (not (not (= symbol_227 (_ bv4 32)))))
(assert (not (not (= symbol_225 (_ bv4 32)))))
(assert (not (not (= symbol_223 (_ bv4 32)))))
(assert (not (not (= symbol_221 (_ bv4 32)))))
(assert (not (not (= symbol_218 (_ bv4 32)))))
(assert (not (not (= symbol_216 (_ bv4 32)))))
(assert (not (not (= symbol_214 (_ bv4 32)))))
(assert (not (not (= symbol_212 (_ bv4 32)))))
(assert (not (not (= symbol_209 (_ bv4 32)))))
(assert (not (not (= symbol_207 (_ bv4 32)))))
(assert (not (not (= symbol_205 (_ bv4 32)))))
(assert (not (not (= symbol_203 (_ bv4 32)))))
(assert (not (not (= symbol_201 (_ bv4 32)))))
(assert (not (not (= symbol_199 (_ bv4 32)))))
(assert (not (not (= symbol_197 (_ bv4 32)))))
(assert (not (not (= symbol_196 (_ bv4 32)))))
(assert (not (not (= symbol_194 (_ bv4 32)))))
(assert (not (not (= symbol_192 (_ bv4 32)))))
(assert (not (not (= symbol_190 (_ bv4 32)))))
(assert (not (not (= symbol_188 (_ bv4 32)))))
(assert (not (not (= symbol_186 (_ bv4 32)))))
(assert (not (not (= symbol_183 (_ bv4 32)))))
(assert (not (not (= symbol_181 (_ bv4 32)))))
(assert (not (not (= symbol_179 (_ bv4 32)))))
(assert (not (not (= symbol_177 (_ bv4 32)))))
(assert (not (not (= symbol_175 (_ bv4 32)))))
(assert (not (not (= symbol_172 (_ bv4 32)))))
(assert (not (not (= symbol_170 (_ bv4 32)))))
(assert (not (not (= symbol_168 (_ bv4 32)))))
(assert (not (not (= symbol_166 (_ bv4 32)))))
(assert (not (not (= symbol_164 (_ bv4 32)))))
(assert (not (not (= symbol_163 (_ bv4 32)))))
(assert (not (not (= symbol_161 (_ bv4 32)))))
(assert (not (not (= symbol_159 (_ bv4 32)))))
(assert (not (not (= symbol_157 (_ bv4 32)))))
(assert (not (not (= symbol_155 (_ bv4 32)))))
(assert (not (not (= symbol_153 (_ bv4 32)))))
(assert (not (not (= symbol_151 (_ bv4 32)))))
(assert (not (not (= symbol_149 (_ bv4 32)))))
(assert (not (not (= symbol_148 (_ bv4 32)))))
(assert (not (not (= symbol_146 (_ bv4 32)))))
(assert (not (not (= symbol_143 (_ bv4 32)))))
(assert (not (not (= symbol_141 (_ bv4 32)))))
(assert (not (not (= symbol_139 (_ bv4 32)))))
(assert (not (not (= symbol_137 (_ bv4 32)))))
(assert (not (not (= symbol_136 (_ bv4 32)))))
(assert (not (not (= symbol_134 (_ bv4 32)))))
(assert (not (not (= symbol_132 (_ bv4 32)))))
(assert (not (not (= symbol_130 (_ bv4 32)))))
(assert (not (not (= symbol_128 (_ bv4 32)))))
(assert (not (not (= symbol_126 (_ bv4 32)))))
(assert (not (not (= symbol_123 (_ bv4 32)))))
(assert (not (not (= symbol_122 (_ bv4 32)))))
(assert (not (not (= symbol_120 (_ bv4 32)))))
(assert (not (not (= symbol_118 (_ bv4 32)))))
(assert (not (not (= symbol_116 (_ bv4 32)))))
(assert (not (not (= symbol_114 (_ bv4 32)))))
(assert (not (not (= symbol_112 (_ bv4 32)))))
(assert (not (not (= symbol_110 (_ bv4 32)))))
(assert (not (not (= symbol_108 (_ bv4 32)))))
(assert (not (not (= symbol_106 (_ bv4 32)))))
(assert (not (not (= symbol_104 (_ bv4 32)))))
(assert (not (not (= symbol_102 (_ bv4 32)))))
(assert (not (not (= symbol_100 (_ bv4 32)))))
(assert (not (not (= symbol_98 (_ bv4 32)))))
(assert (not (not (= symbol_96 (_ bv4 32)))))
(assert (not (not (= symbol_95 (_ bv4 32)))))
(assert (not (not (= symbol_93 (_ bv4 32)))))
(assert (not (not (= symbol_91 (_ bv4 32)))))
(assert (not (not (= symbol_88 (_ bv4 32)))))
(assert (not (not (= symbol_86 (_ bv4 32)))))
(assert (not (not (= symbol_84 (_ bv4 32)))))
(assert (not (not (= symbol_82 (_ bv4 32)))))
(assert (not (not (= symbol_80 (_ bv4 32)))))
(assert (not (not (= symbol_78 (_ bv4 32)))))
(assert (not (not (= symbol_76 (_ bv4 32)))))
(assert (not (not (= symbol_74 (_ bv4 32)))))
(assert (not (not (= symbol_72 (_ bv4 32)))))
(assert (not (not (= symbol_69 (_ bv4 32)))))
(assert (not (not (= symbol_67 (_ bv4 32)))))
(assert (not (not (= symbol_66 (_ bv4 32)))))
(assert (not (not (= symbol_64 (_ bv4 32)))))
(assert (not (not (= symbol_62 (_ bv4 32)))))
(assert (not (not (= symbol_60 (_ bv4 32)))))
(assert (not (not (= symbol_58 (_ bv4 32)))))
(assert (not (not (= symbol_56 (_ bv4 32)))))
(assert (not (not (= symbol_54 (_ bv4 32)))))
(assert (not (not (= symbol_52 (_ bv4 32)))))
(assert (not (not (= symbol_50 (_ bv4 32)))))
(assert (not (not (= symbol_48 (_ bv4 32)))))
(assert (not (not (= symbol_46 (_ bv4 32)))))
(assert (not (not (= symbol_44 (_ bv4 32)))))
(assert (not (not (= symbol_42 (_ bv4 32)))))
(assert (not (not (= symbol_41 (_ bv4 32)))))
(assert (not (not (= symbol_39 (_ bv4 32)))))
(assert (not (not (= symbol_37 (_ bv4 32)))))
(assert (not (not (= symbol_35 (_ bv4 32)))))
(assert (not (not (= symbol_33 (_ bv4 32)))))
(assert (not (not (= symbol_31 (_ bv4 32)))))
(assert (not (not (= symbol_29 (_ bv4 32)))))
(assert (not (not (= symbol_26 (_ bv4 32)))))
(assert (not (not (= symbol_24 (_ bv4 32)))))
(assert (not (not (= symbol_22 (_ bv4 32)))))
(assert (not (not (= symbol_20 (_ bv4 32)))))
(assert (not (not (= symbol_17 (_ bv4 32)))))
(assert (not (not (= symbol_16 (_ bv4 32)))))
(assert (not (not (= symbol_14 (_ bv4 32)))))
(assert (not (not (= symbol_12 (_ bv4 32)))))
(assert (not (not (= symbol_10 (_ bv4 32)))))
(assert (not (not (= symbol_9 (_ bv4 32)))))
(assert (not (not (= symbol_7 (_ bv4 32)))))
(assert (not (not (= symbol_5 (_ bv4 32)))))
(assert (not (not (= symbol_3 (_ bv4 32)))))
(assert (not (not (= symbol_1 (_ bv4 32)))))
(assert (not (not (= symbol_0 (_ bv4 32)))))
(check-sat)